unsat
(:added-eqs                   2524408
 :arith-eq-adapter            3908
 :arith-bound-propagations-lp 163065
 :arith-conflicts             432
 :arith-diseq                 191279
 :arith-fixed-eqs             240971
 :arith-lower                 147610
 :arith-make-feasible         71953
 :arith-max-columns           1255
 :arith-max-rows              710
 :arith-offset-eqs            82700
 :arith-upper                 270510
 :binary-propagations         10236969
 :conflicts                   22332
 :decisions                   1376967
 :del-clause                  31081
 :elim-unconstrained          4
 :max-memory                  54.63
 :memory                      36.28
 :minimized-lits              265641
 :mk-bool-var                 22550
 :mk-clause                   33780
 :mk-clause-binary            57045
 :num-allocs                  440593761
 :num-checks                  1
 :propagations                13916074
 :restarts                    132
 :rlimit-count                43068019
 :time                        14.35
 :total-time                  14.53)
